#N SCF=(qc,symm) NMR IOp(10/46=1) geom=connectivity B3LYP  def2TZVP

comment line

0 1
C, 0.00000, 1.39700, 0.00000
C, 1.20980, 0.69850, 0.00000
C, 1.20980, -0.69850, 0.00000
C, 0.00000, -1.39700, 0.00000
C, -1.20980, -0.69850, 0.00000
C, -1.20980, 0.69850, 0.00000
H, 0.00000, 2.48100, 0.00000
H, 2.14860, 1.24050, 0.00000
H, 2.14860, -1.24050, 0.00000
H, 0.00000, -2.48100, 0.00000
H, -2.14860, -1.24050, 0.00000
H, -2.14860, 1.24050, 0.00000
Bq -3.0 -3.0 1.0
Bq -3.0 -2.8 1.0
Bq -3.0 -2.5999999999999996 1.0
Bq -3.0 -2.3999999999999995 1.0
Bq -3.0 -2.1999999999999993 1.0
Bq -3.0 -1.9999999999999991 1.0
Bq -3.0 -1.799999999999999 1.0
Bq -3.0 -1.5999999999999988 1.0
Bq -3.0 -1.3999999999999986 1.0
Bq -3.0 -1.1999999999999984 1.0
Bq -3.0 -0.9999999999999982 1.0
Bq -3.0 -0.799999999999998 1.0
Bq -3.0 -0.5999999999999979 1.0
Bq -3.0 -0.3999999999999977 1.0
Bq -3.0 -0.1999999999999975 1.0
Bq -3.0 2.6645352591003757e-15 1.0
Bq -3.0 0.20000000000000284 1.0
Bq -3.0 0.400000000000003 1.0
Bq -3.0 0.6000000000000032 1.0
Bq -3.0 0.8000000000000034 1.0
Bq -3.0 1.0000000000000036 1.0
Bq -3.0 1.2000000000000037 1.0
Bq -3.0 1.400000000000004 1.0
Bq -3.0 1.600000000000004 1.0
Bq -3.0 1.8000000000000043 1.0
Bq -3.0 2.0000000000000044 1.0
Bq -3.0 2.2000000000000046 1.0
Bq -3.0 2.400000000000005 1.0
Bq -3.0 2.600000000000005 1.0
Bq -3.0 2.800000000000005 1.0
Bq -3.0 3.0000000000000053 1.0
Bq -2.8 -3.0 1.0
Bq -2.8 -2.8 1.0
Bq -2.8 -2.5999999999999996 1.0
Bq -2.8 -2.3999999999999995 1.0
Bq -2.8 -2.1999999999999993 1.0
Bq -2.8 -1.9999999999999991 1.0
Bq -2.8 -1.799999999999999 1.0
Bq -2.8 -1.5999999999999988 1.0
Bq -2.8 -1.3999999999999986 1.0
Bq -2.8 -1.1999999999999984 1.0
Bq -2.8 -0.9999999999999982 1.0
Bq -2.8 -0.799999999999998 1.0
Bq -2.8 -0.5999999999999979 1.0
Bq -2.8 -0.3999999999999977 1.0
Bq -2.8 -0.1999999999999975 1.0
Bq -2.8 2.6645352591003757e-15 1.0
Bq -2.8 0.20000000000000284 1.0
Bq -2.8 0.400000000000003 1.0
Bq -2.8 0.6000000000000032 1.0
Bq -2.8 0.8000000000000034 1.0
Bq -2.8 1.0000000000000036 1.0
Bq -2.8 1.2000000000000037 1.0
Bq -2.8 1.400000000000004 1.0
Bq -2.8 1.600000000000004 1.0
Bq -2.8 1.8000000000000043 1.0
Bq -2.8 2.0000000000000044 1.0
Bq -2.8 2.2000000000000046 1.0
Bq -2.8 2.400000000000005 1.0
Bq -2.8 2.600000000000005 1.0
Bq -2.8 2.800000000000005 1.0
Bq -2.8 3.0000000000000053 1.0
Bq -2.5999999999999996 -3.0 1.0
Bq -2.5999999999999996 -2.8 1.0
Bq -2.5999999999999996 -2.5999999999999996 1.0
Bq -2.5999999999999996 -2.3999999999999995 1.0
Bq -2.5999999999999996 -2.1999999999999993 1.0
Bq -2.5999999999999996 -1.9999999999999991 1.0
Bq -2.5999999999999996 -1.799999999999999 1.0
Bq -2.5999999999999996 -1.5999999999999988 1.0
Bq -2.5999999999999996 -1.3999999999999986 1.0
Bq -2.5999999999999996 -1.1999999999999984 1.0
Bq -2.5999999999999996 -0.9999999999999982 1.0
Bq -2.5999999999999996 -0.799999999999998 1.0
Bq -2.5999999999999996 -0.5999999999999979 1.0
Bq -2.5999999999999996 -0.3999999999999977 1.0
Bq -2.5999999999999996 -0.1999999999999975 1.0
Bq -2.5999999999999996 2.6645352591003757e-15 1.0
Bq -2.5999999999999996 0.20000000000000284 1.0
Bq -2.5999999999999996 0.400000000000003 1.0
Bq -2.5999999999999996 0.6000000000000032 1.0
Bq -2.5999999999999996 0.8000000000000034 1.0
Bq -2.5999999999999996 1.0000000000000036 1.0
Bq -2.5999999999999996 1.2000000000000037 1.0
Bq -2.5999999999999996 1.400000000000004 1.0
Bq -2.5999999999999996 1.600000000000004 1.0
Bq -2.5999999999999996 1.8000000000000043 1.0
Bq -2.5999999999999996 2.0000000000000044 1.0
Bq -2.5999999999999996 2.2000000000000046 1.0
Bq -2.5999999999999996 2.400000000000005 1.0
Bq -2.5999999999999996 2.600000000000005 1.0
Bq -2.5999999999999996 2.800000000000005 1.0
Bq -2.5999999999999996 3.0000000000000053 1.0
Bq -2.3999999999999995 -3.0 1.0
Bq -2.3999999999999995 -2.8 1.0
Bq -2.3999999999999995 -2.5999999999999996 1.0
Bq -2.3999999999999995 -2.3999999999999995 1.0
Bq -2.3999999999999995 -2.1999999999999993 1.0
Bq -2.3999999999999995 -1.9999999999999991 1.0
Bq -2.3999999999999995 -1.799999999999999 1.0
Bq -2.3999999999999995 -1.5999999999999988 1.0
Bq -2.3999999999999995 -1.3999999999999986 1.0
Bq -2.3999999999999995 -1.1999999999999984 1.0
Bq -2.3999999999999995 -0.9999999999999982 1.0
Bq -2.3999999999999995 -0.799999999999998 1.0
Bq -2.3999999999999995 -0.5999999999999979 1.0
Bq -2.3999999999999995 -0.3999999999999977 1.0
Bq -2.3999999999999995 -0.1999999999999975 1.0
Bq -2.3999999999999995 2.6645352591003757e-15 1.0
Bq -2.3999999999999995 0.20000000000000284 1.0
Bq -2.3999999999999995 0.400000000000003 1.0
Bq -2.3999999999999995 0.6000000000000032 1.0
Bq -2.3999999999999995 0.8000000000000034 1.0
Bq -2.3999999999999995 1.0000000000000036 1.0
Bq -2.3999999999999995 1.2000000000000037 1.0
Bq -2.3999999999999995 1.400000000000004 1.0
Bq -2.3999999999999995 1.600000000000004 1.0
Bq -2.3999999999999995 1.8000000000000043 1.0
Bq -2.3999999999999995 2.0000000000000044 1.0
Bq -2.3999999999999995 2.2000000000000046 1.0
Bq -2.3999999999999995 2.400000000000005 1.0
Bq -2.3999999999999995 2.600000000000005 1.0
Bq -2.3999999999999995 2.800000000000005 1.0
Bq -2.3999999999999995 3.0000000000000053 1.0
Bq -2.1999999999999993 -3.0 1.0
Bq -2.1999999999999993 -2.8 1.0
Bq -2.1999999999999993 -2.5999999999999996 1.0
Bq -2.1999999999999993 -2.3999999999999995 1.0
Bq -2.1999999999999993 -2.1999999999999993 1.0
Bq -2.1999999999999993 -1.9999999999999991 1.0
Bq -2.1999999999999993 -1.799999999999999 1.0
Bq -2.1999999999999993 -1.5999999999999988 1.0
Bq -2.1999999999999993 -1.3999999999999986 1.0
Bq -2.1999999999999993 -1.1999999999999984 1.0
Bq -2.1999999999999993 -0.9999999999999982 1.0
Bq -2.1999999999999993 -0.799999999999998 1.0
Bq -2.1999999999999993 -0.5999999999999979 1.0
Bq -2.1999999999999993 -0.3999999999999977 1.0
Bq -2.1999999999999993 -0.1999999999999975 1.0
Bq -2.1999999999999993 2.6645352591003757e-15 1.0
Bq -2.1999999999999993 0.20000000000000284 1.0
Bq -2.1999999999999993 0.400000000000003 1.0
Bq -2.1999999999999993 0.6000000000000032 1.0
Bq -2.1999999999999993 0.8000000000000034 1.0
Bq -2.1999999999999993 1.0000000000000036 1.0
Bq -2.1999999999999993 1.2000000000000037 1.0
Bq -2.1999999999999993 1.400000000000004 1.0
Bq -2.1999999999999993 1.600000000000004 1.0
Bq -2.1999999999999993 1.8000000000000043 1.0
Bq -2.1999999999999993 2.0000000000000044 1.0
Bq -2.1999999999999993 2.2000000000000046 1.0
Bq -2.1999999999999993 2.400000000000005 1.0
Bq -2.1999999999999993 2.600000000000005 1.0
Bq -2.1999999999999993 2.800000000000005 1.0
Bq -2.1999999999999993 3.0000000000000053 1.0
Bq -1.9999999999999991 -3.0 1.0
Bq -1.9999999999999991 -2.8 1.0
Bq -1.9999999999999991 -2.5999999999999996 1.0
Bq -1.9999999999999991 -2.3999999999999995 1.0
Bq -1.9999999999999991 -2.1999999999999993 1.0
Bq -1.9999999999999991 -1.9999999999999991 1.0
Bq -1.9999999999999991 -1.799999999999999 1.0
Bq -1.9999999999999991 -1.5999999999999988 1.0
Bq -1.9999999999999991 -1.3999999999999986 1.0
Bq -1.9999999999999991 -1.1999999999999984 1.0
Bq -1.9999999999999991 -0.9999999999999982 1.0
Bq -1.9999999999999991 -0.799999999999998 1.0
Bq -1.9999999999999991 -0.5999999999999979 1.0
Bq -1.9999999999999991 -0.3999999999999977 1.0
Bq -1.9999999999999991 -0.1999999999999975 1.0
Bq -1.9999999999999991 2.6645352591003757e-15 1.0
Bq -1.9999999999999991 0.20000000000000284 1.0
Bq -1.9999999999999991 0.400000000000003 1.0
Bq -1.9999999999999991 0.6000000000000032 1.0
Bq -1.9999999999999991 0.8000000000000034 1.0
Bq -1.9999999999999991 1.0000000000000036 1.0
Bq -1.9999999999999991 1.2000000000000037 1.0
Bq -1.9999999999999991 1.400000000000004 1.0
Bq -1.9999999999999991 1.600000000000004 1.0
Bq -1.9999999999999991 1.8000000000000043 1.0
Bq -1.9999999999999991 2.0000000000000044 1.0
Bq -1.9999999999999991 2.2000000000000046 1.0
Bq -1.9999999999999991 2.400000000000005 1.0
Bq -1.9999999999999991 2.600000000000005 1.0
Bq -1.9999999999999991 2.800000000000005 1.0
Bq -1.9999999999999991 3.0000000000000053 1.0
Bq -1.799999999999999 -3.0 1.0
Bq -1.799999999999999 -2.8 1.0
Bq -1.799999999999999 -2.5999999999999996 1.0
Bq -1.799999999999999 -2.3999999999999995 1.0
Bq -1.799999999999999 -2.1999999999999993 1.0
Bq -1.799999999999999 -1.9999999999999991 1.0
Bq -1.799999999999999 -1.799999999999999 1.0
Bq -1.799999999999999 -1.5999999999999988 1.0
Bq -1.799999999999999 -1.3999999999999986 1.0
Bq -1.799999999999999 -1.1999999999999984 1.0
Bq -1.799999999999999 -0.9999999999999982 1.0
Bq -1.799999999999999 -0.799999999999998 1.0
Bq -1.799999999999999 -0.5999999999999979 1.0
Bq -1.799999999999999 -0.3999999999999977 1.0
Bq -1.799999999999999 -0.1999999999999975 1.0
Bq -1.799999999999999 2.6645352591003757e-15 1.0
Bq -1.799999999999999 0.20000000000000284 1.0
Bq -1.799999999999999 0.400000000000003 1.0
Bq -1.799999999999999 0.6000000000000032 1.0
Bq -1.799999999999999 0.8000000000000034 1.0
Bq -1.799999999999999 1.0000000000000036 1.0
Bq -1.799999999999999 1.2000000000000037 1.0
Bq -1.799999999999999 1.400000000000004 1.0
Bq -1.799999999999999 1.600000000000004 1.0
Bq -1.799999999999999 1.8000000000000043 1.0
Bq -1.799999999999999 2.0000000000000044 1.0
Bq -1.799999999999999 2.2000000000000046 1.0
Bq -1.799999999999999 2.400000000000005 1.0
Bq -1.799999999999999 2.600000000000005 1.0
Bq -1.799999999999999 2.800000000000005 1.0
Bq -1.799999999999999 3.0000000000000053 1.0
Bq -1.5999999999999988 -3.0 1.0
Bq -1.5999999999999988 -2.8 1.0
Bq -1.5999999999999988 -2.5999999999999996 1.0
Bq -1.5999999999999988 -2.3999999999999995 1.0
Bq -1.5999999999999988 -2.1999999999999993 1.0
Bq -1.5999999999999988 -1.9999999999999991 1.0
Bq -1.5999999999999988 -1.799999999999999 1.0
Bq -1.5999999999999988 -1.5999999999999988 1.0
Bq -1.5999999999999988 -1.3999999999999986 1.0
Bq -1.5999999999999988 -1.1999999999999984 1.0
Bq -1.5999999999999988 -0.9999999999999982 1.0
Bq -1.5999999999999988 -0.799999999999998 1.0
Bq -1.5999999999999988 -0.5999999999999979 1.0
Bq -1.5999999999999988 -0.3999999999999977 1.0
Bq -1.5999999999999988 -0.1999999999999975 1.0
Bq -1.5999999999999988 2.6645352591003757e-15 1.0
Bq -1.5999999999999988 0.20000000000000284 1.0
Bq -1.5999999999999988 0.400000000000003 1.0
Bq -1.5999999999999988 0.6000000000000032 1.0
Bq -1.5999999999999988 0.8000000000000034 1.0
Bq -1.5999999999999988 1.0000000000000036 1.0
Bq -1.5999999999999988 1.2000000000000037 1.0
Bq -1.5999999999999988 1.400000000000004 1.0
Bq -1.5999999999999988 1.600000000000004 1.0
Bq -1.5999999999999988 1.8000000000000043 1.0
Bq -1.5999999999999988 2.0000000000000044 1.0
Bq -1.5999999999999988 2.2000000000000046 1.0
Bq -1.5999999999999988 2.400000000000005 1.0
Bq -1.5999999999999988 2.600000000000005 1.0
Bq -1.5999999999999988 2.800000000000005 1.0
Bq -1.5999999999999988 3.0000000000000053 1.0
Bq -1.3999999999999986 -3.0 1.0
Bq -1.3999999999999986 -2.8 1.0
Bq -1.3999999999999986 -2.5999999999999996 1.0
Bq -1.3999999999999986 -2.3999999999999995 1.0
Bq -1.3999999999999986 -2.1999999999999993 1.0
Bq -1.3999999999999986 -1.9999999999999991 1.0
Bq -1.3999999999999986 -1.799999999999999 1.0
Bq -1.3999999999999986 -1.5999999999999988 1.0
Bq -1.3999999999999986 -1.3999999999999986 1.0
Bq -1.3999999999999986 -1.1999999999999984 1.0
Bq -1.3999999999999986 -0.9999999999999982 1.0
Bq -1.3999999999999986 -0.799999999999998 1.0
Bq -1.3999999999999986 -0.5999999999999979 1.0
Bq -1.3999999999999986 -0.3999999999999977 1.0
Bq -1.3999999999999986 -0.1999999999999975 1.0
Bq -1.3999999999999986 2.6645352591003757e-15 1.0
Bq -1.3999999999999986 0.20000000000000284 1.0
Bq -1.3999999999999986 0.400000000000003 1.0
Bq -1.3999999999999986 0.6000000000000032 1.0
Bq -1.3999999999999986 0.8000000000000034 1.0
Bq -1.3999999999999986 1.0000000000000036 1.0
Bq -1.3999999999999986 1.2000000000000037 1.0
Bq -1.3999999999999986 1.400000000000004 1.0
Bq -1.3999999999999986 1.600000000000004 1.0
Bq -1.3999999999999986 1.8000000000000043 1.0
Bq -1.3999999999999986 2.0000000000000044 1.0
Bq -1.3999999999999986 2.2000000000000046 1.0
Bq -1.3999999999999986 2.400000000000005 1.0
Bq -1.3999999999999986 2.600000000000005 1.0
Bq -1.3999999999999986 2.800000000000005 1.0
Bq -1.3999999999999986 3.0000000000000053 1.0
Bq -1.1999999999999984 -3.0 1.0
Bq -1.1999999999999984 -2.8 1.0
Bq -1.1999999999999984 -2.5999999999999996 1.0
Bq -1.1999999999999984 -2.3999999999999995 1.0
Bq -1.1999999999999984 -2.1999999999999993 1.0
Bq -1.1999999999999984 -1.9999999999999991 1.0
Bq -1.1999999999999984 -1.799999999999999 1.0
Bq -1.1999999999999984 -1.5999999999999988 1.0
Bq -1.1999999999999984 -1.3999999999999986 1.0
Bq -1.1999999999999984 -1.1999999999999984 1.0
Bq -1.1999999999999984 -0.9999999999999982 1.0
Bq -1.1999999999999984 -0.799999999999998 1.0
Bq -1.1999999999999984 -0.5999999999999979 1.0
Bq -1.1999999999999984 -0.3999999999999977 1.0
Bq -1.1999999999999984 -0.1999999999999975 1.0
Bq -1.1999999999999984 2.6645352591003757e-15 1.0
Bq -1.1999999999999984 0.20000000000000284 1.0
Bq -1.1999999999999984 0.400000000000003 1.0
Bq -1.1999999999999984 0.6000000000000032 1.0
Bq -1.1999999999999984 0.8000000000000034 1.0
Bq -1.1999999999999984 1.0000000000000036 1.0
Bq -1.1999999999999984 1.2000000000000037 1.0
Bq -1.1999999999999984 1.400000000000004 1.0
Bq -1.1999999999999984 1.600000000000004 1.0
Bq -1.1999999999999984 1.8000000000000043 1.0
Bq -1.1999999999999984 2.0000000000000044 1.0
Bq -1.1999999999999984 2.2000000000000046 1.0
Bq -1.1999999999999984 2.400000000000005 1.0
Bq -1.1999999999999984 2.600000000000005 1.0
Bq -1.1999999999999984 2.800000000000005 1.0
Bq -1.1999999999999984 3.0000000000000053 1.0
Bq -0.9999999999999982 -3.0 1.0
Bq -0.9999999999999982 -2.8 1.0
Bq -0.9999999999999982 -2.5999999999999996 1.0
Bq -0.9999999999999982 -2.3999999999999995 1.0
Bq -0.9999999999999982 -2.1999999999999993 1.0
Bq -0.9999999999999982 -1.9999999999999991 1.0
Bq -0.9999999999999982 -1.799999999999999 1.0
Bq -0.9999999999999982 -1.5999999999999988 1.0
Bq -0.9999999999999982 -1.3999999999999986 1.0
Bq -0.9999999999999982 -1.1999999999999984 1.0
Bq -0.9999999999999982 -0.9999999999999982 1.0
Bq -0.9999999999999982 -0.799999999999998 1.0
Bq -0.9999999999999982 -0.5999999999999979 1.0
Bq -0.9999999999999982 -0.3999999999999977 1.0
Bq -0.9999999999999982 -0.1999999999999975 1.0
Bq -0.9999999999999982 2.6645352591003757e-15 1.0
Bq -0.9999999999999982 0.20000000000000284 1.0
Bq -0.9999999999999982 0.400000000000003 1.0
Bq -0.9999999999999982 0.6000000000000032 1.0
Bq -0.9999999999999982 0.8000000000000034 1.0
Bq -0.9999999999999982 1.0000000000000036 1.0
Bq -0.9999999999999982 1.2000000000000037 1.0
Bq -0.9999999999999982 1.400000000000004 1.0
Bq -0.9999999999999982 1.600000000000004 1.0
Bq -0.9999999999999982 1.8000000000000043 1.0
Bq -0.9999999999999982 2.0000000000000044 1.0
Bq -0.9999999999999982 2.2000000000000046 1.0
Bq -0.9999999999999982 2.400000000000005 1.0
Bq -0.9999999999999982 2.600000000000005 1.0
Bq -0.9999999999999982 2.800000000000005 1.0
Bq -0.9999999999999982 3.0000000000000053 1.0
Bq -0.799999999999998 -3.0 1.0
Bq -0.799999999999998 -2.8 1.0
Bq -0.799999999999998 -2.5999999999999996 1.0
Bq -0.799999999999998 -2.3999999999999995 1.0
Bq -0.799999999999998 -2.1999999999999993 1.0
Bq -0.799999999999998 -1.9999999999999991 1.0
Bq -0.799999999999998 -1.799999999999999 1.0
Bq -0.799999999999998 -1.5999999999999988 1.0
Bq -0.799999999999998 -1.3999999999999986 1.0
Bq -0.799999999999998 -1.1999999999999984 1.0
Bq -0.799999999999998 -0.9999999999999982 1.0
Bq -0.799999999999998 -0.799999999999998 1.0
Bq -0.799999999999998 -0.5999999999999979 1.0
Bq -0.799999999999998 -0.3999999999999977 1.0
Bq -0.799999999999998 -0.1999999999999975 1.0
Bq -0.799999999999998 2.6645352591003757e-15 1.0
Bq -0.799999999999998 0.20000000000000284 1.0
Bq -0.799999999999998 0.400000000000003 1.0
Bq -0.799999999999998 0.6000000000000032 1.0
Bq -0.799999999999998 0.8000000000000034 1.0
Bq -0.799999999999998 1.0000000000000036 1.0
Bq -0.799999999999998 1.2000000000000037 1.0
Bq -0.799999999999998 1.400000000000004 1.0
Bq -0.799999999999998 1.600000000000004 1.0
Bq -0.799999999999998 1.8000000000000043 1.0
Bq -0.799999999999998 2.0000000000000044 1.0
Bq -0.799999999999998 2.2000000000000046 1.0
Bq -0.799999999999998 2.400000000000005 1.0
Bq -0.799999999999998 2.600000000000005 1.0
Bq -0.799999999999998 2.800000000000005 1.0
Bq -0.799999999999998 3.0000000000000053 1.0
Bq -0.5999999999999979 -3.0 1.0
Bq -0.5999999999999979 -2.8 1.0
Bq -0.5999999999999979 -2.5999999999999996 1.0
Bq -0.5999999999999979 -2.3999999999999995 1.0
Bq -0.5999999999999979 -2.1999999999999993 1.0
Bq -0.5999999999999979 -1.9999999999999991 1.0
Bq -0.5999999999999979 -1.799999999999999 1.0
Bq -0.5999999999999979 -1.5999999999999988 1.0
Bq -0.5999999999999979 -1.3999999999999986 1.0
Bq -0.5999999999999979 -1.1999999999999984 1.0
Bq -0.5999999999999979 -0.9999999999999982 1.0
Bq -0.5999999999999979 -0.799999999999998 1.0
Bq -0.5999999999999979 -0.5999999999999979 1.0
Bq -0.5999999999999979 -0.3999999999999977 1.0
Bq -0.5999999999999979 -0.1999999999999975 1.0
Bq -0.5999999999999979 2.6645352591003757e-15 1.0
Bq -0.5999999999999979 0.20000000000000284 1.0
Bq -0.5999999999999979 0.400000000000003 1.0
Bq -0.5999999999999979 0.6000000000000032 1.0
Bq -0.5999999999999979 0.8000000000000034 1.0
Bq -0.5999999999999979 1.0000000000000036 1.0
Bq -0.5999999999999979 1.2000000000000037 1.0
Bq -0.5999999999999979 1.400000000000004 1.0
Bq -0.5999999999999979 1.600000000000004 1.0
Bq -0.5999999999999979 1.8000000000000043 1.0
Bq -0.5999999999999979 2.0000000000000044 1.0
Bq -0.5999999999999979 2.2000000000000046 1.0
Bq -0.5999999999999979 2.400000000000005 1.0
Bq -0.5999999999999979 2.600000000000005 1.0
Bq -0.5999999999999979 2.800000000000005 1.0
Bq -0.5999999999999979 3.0000000000000053 1.0
Bq -0.3999999999999977 -3.0 1.0
Bq -0.3999999999999977 -2.8 1.0
Bq -0.3999999999999977 -2.5999999999999996 1.0
Bq -0.3999999999999977 -2.3999999999999995 1.0
Bq -0.3999999999999977 -2.1999999999999993 1.0
Bq -0.3999999999999977 -1.9999999999999991 1.0
Bq -0.3999999999999977 -1.799999999999999 1.0
Bq -0.3999999999999977 -1.5999999999999988 1.0
Bq -0.3999999999999977 -1.3999999999999986 1.0
Bq -0.3999999999999977 -1.1999999999999984 1.0
Bq -0.3999999999999977 -0.9999999999999982 1.0
Bq -0.3999999999999977 -0.799999999999998 1.0
Bq -0.3999999999999977 -0.5999999999999979 1.0
Bq -0.3999999999999977 -0.3999999999999977 1.0
Bq -0.3999999999999977 -0.1999999999999975 1.0
Bq -0.3999999999999977 2.6645352591003757e-15 1.0
Bq -0.3999999999999977 0.20000000000000284 1.0
Bq -0.3999999999999977 0.400000000000003 1.0
Bq -0.3999999999999977 0.6000000000000032 1.0
Bq -0.3999999999999977 0.8000000000000034 1.0
Bq -0.3999999999999977 1.0000000000000036 1.0
Bq -0.3999999999999977 1.2000000000000037 1.0
Bq -0.3999999999999977 1.400000000000004 1.0
Bq -0.3999999999999977 1.600000000000004 1.0
Bq -0.3999999999999977 1.8000000000000043 1.0
Bq -0.3999999999999977 2.0000000000000044 1.0
Bq -0.3999999999999977 2.2000000000000046 1.0
Bq -0.3999999999999977 2.400000000000005 1.0
Bq -0.3999999999999977 2.600000000000005 1.0
Bq -0.3999999999999977 2.800000000000005 1.0
Bq -0.3999999999999977 3.0000000000000053 1.0
Bq -0.1999999999999975 -3.0 1.0
Bq -0.1999999999999975 -2.8 1.0
Bq -0.1999999999999975 -2.5999999999999996 1.0
Bq -0.1999999999999975 -2.3999999999999995 1.0
Bq -0.1999999999999975 -2.1999999999999993 1.0
Bq -0.1999999999999975 -1.9999999999999991 1.0
Bq -0.1999999999999975 -1.799999999999999 1.0
Bq -0.1999999999999975 -1.5999999999999988 1.0
Bq -0.1999999999999975 -1.3999999999999986 1.0
Bq -0.1999999999999975 -1.1999999999999984 1.0
Bq -0.1999999999999975 -0.9999999999999982 1.0
Bq -0.1999999999999975 -0.799999999999998 1.0
Bq -0.1999999999999975 -0.5999999999999979 1.0
Bq -0.1999999999999975 -0.3999999999999977 1.0
Bq -0.1999999999999975 -0.1999999999999975 1.0
Bq -0.1999999999999975 2.6645352591003757e-15 1.0
Bq -0.1999999999999975 0.20000000000000284 1.0
Bq -0.1999999999999975 0.400000000000003 1.0
Bq -0.1999999999999975 0.6000000000000032 1.0
Bq -0.1999999999999975 0.8000000000000034 1.0
Bq -0.1999999999999975 1.0000000000000036 1.0
Bq -0.1999999999999975 1.2000000000000037 1.0
Bq -0.1999999999999975 1.400000000000004 1.0
Bq -0.1999999999999975 1.600000000000004 1.0
Bq -0.1999999999999975 1.8000000000000043 1.0
Bq -0.1999999999999975 2.0000000000000044 1.0
Bq -0.1999999999999975 2.2000000000000046 1.0
Bq -0.1999999999999975 2.400000000000005 1.0
Bq -0.1999999999999975 2.600000000000005 1.0
Bq -0.1999999999999975 2.800000000000005 1.0
Bq -0.1999999999999975 3.0000000000000053 1.0
Bq 2.6645352591003757e-15 -3.0 1.0
Bq 2.6645352591003757e-15 -2.8 1.0
Bq 2.6645352591003757e-15 -2.5999999999999996 1.0
Bq 2.6645352591003757e-15 -2.3999999999999995 1.0
Bq 2.6645352591003757e-15 -2.1999999999999993 1.0
Bq 2.6645352591003757e-15 -1.9999999999999991 1.0
Bq 2.6645352591003757e-15 -1.799999999999999 1.0
Bq 2.6645352591003757e-15 -1.5999999999999988 1.0
Bq 2.6645352591003757e-15 -1.3999999999999986 1.0
Bq 2.6645352591003757e-15 -1.1999999999999984 1.0
Bq 2.6645352591003757e-15 -0.9999999999999982 1.0
Bq 2.6645352591003757e-15 -0.799999999999998 1.0
Bq 2.6645352591003757e-15 -0.5999999999999979 1.0
Bq 2.6645352591003757e-15 -0.3999999999999977 1.0
Bq 2.6645352591003757e-15 -0.1999999999999975 1.0
Bq 2.6645352591003757e-15 2.6645352591003757e-15 1.0
Bq 2.6645352591003757e-15 0.20000000000000284 1.0
Bq 2.6645352591003757e-15 0.400000000000003 1.0
Bq 2.6645352591003757e-15 0.6000000000000032 1.0
Bq 2.6645352591003757e-15 0.8000000000000034 1.0
Bq 2.6645352591003757e-15 1.0000000000000036 1.0
Bq 2.6645352591003757e-15 1.2000000000000037 1.0
Bq 2.6645352591003757e-15 1.400000000000004 1.0
Bq 2.6645352591003757e-15 1.600000000000004 1.0
Bq 2.6645352591003757e-15 1.8000000000000043 1.0
Bq 2.6645352591003757e-15 2.0000000000000044 1.0
Bq 2.6645352591003757e-15 2.2000000000000046 1.0
Bq 2.6645352591003757e-15 2.400000000000005 1.0
Bq 2.6645352591003757e-15 2.600000000000005 1.0
Bq 2.6645352591003757e-15 2.800000000000005 1.0
Bq 2.6645352591003757e-15 3.0000000000000053 1.0
Bq 0.20000000000000284 -3.0 1.0
Bq 0.20000000000000284 -2.8 1.0
Bq 0.20000000000000284 -2.5999999999999996 1.0
Bq 0.20000000000000284 -2.3999999999999995 1.0
Bq 0.20000000000000284 -2.1999999999999993 1.0
Bq 0.20000000000000284 -1.9999999999999991 1.0
Bq 0.20000000000000284 -1.799999999999999 1.0
Bq 0.20000000000000284 -1.5999999999999988 1.0
Bq 0.20000000000000284 -1.3999999999999986 1.0
Bq 0.20000000000000284 -1.1999999999999984 1.0
Bq 0.20000000000000284 -0.9999999999999982 1.0
Bq 0.20000000000000284 -0.799999999999998 1.0
Bq 0.20000000000000284 -0.5999999999999979 1.0
Bq 0.20000000000000284 -0.3999999999999977 1.0
Bq 0.20000000000000284 -0.1999999999999975 1.0
Bq 0.20000000000000284 2.6645352591003757e-15 1.0
Bq 0.20000000000000284 0.20000000000000284 1.0
Bq 0.20000000000000284 0.400000000000003 1.0
Bq 0.20000000000000284 0.6000000000000032 1.0
Bq 0.20000000000000284 0.8000000000000034 1.0
Bq 0.20000000000000284 1.0000000000000036 1.0
Bq 0.20000000000000284 1.2000000000000037 1.0
Bq 0.20000000000000284 1.400000000000004 1.0
Bq 0.20000000000000284 1.600000000000004 1.0
Bq 0.20000000000000284 1.8000000000000043 1.0
Bq 0.20000000000000284 2.0000000000000044 1.0
Bq 0.20000000000000284 2.2000000000000046 1.0
Bq 0.20000000000000284 2.400000000000005 1.0
Bq 0.20000000000000284 2.600000000000005 1.0
Bq 0.20000000000000284 2.800000000000005 1.0
Bq 0.20000000000000284 3.0000000000000053 1.0
Bq 0.400000000000003 -3.0 1.0
Bq 0.400000000000003 -2.8 1.0
Bq 0.400000000000003 -2.5999999999999996 1.0
Bq 0.400000000000003 -2.3999999999999995 1.0
Bq 0.400000000000003 -2.1999999999999993 1.0
Bq 0.400000000000003 -1.9999999999999991 1.0
Bq 0.400000000000003 -1.799999999999999 1.0
Bq 0.400000000000003 -1.5999999999999988 1.0
Bq 0.400000000000003 -1.3999999999999986 1.0
Bq 0.400000000000003 -1.1999999999999984 1.0
Bq 0.400000000000003 -0.9999999999999982 1.0
Bq 0.400000000000003 -0.799999999999998 1.0
Bq 0.400000000000003 -0.5999999999999979 1.0
Bq 0.400000000000003 -0.3999999999999977 1.0
Bq 0.400000000000003 -0.1999999999999975 1.0
Bq 0.400000000000003 2.6645352591003757e-15 1.0
Bq 0.400000000000003 0.20000000000000284 1.0
Bq 0.400000000000003 0.400000000000003 1.0
Bq 0.400000000000003 0.6000000000000032 1.0
Bq 0.400000000000003 0.8000000000000034 1.0
Bq 0.400000000000003 1.0000000000000036 1.0
Bq 0.400000000000003 1.2000000000000037 1.0
Bq 0.400000000000003 1.400000000000004 1.0
Bq 0.400000000000003 1.600000000000004 1.0
Bq 0.400000000000003 1.8000000000000043 1.0
Bq 0.400000000000003 2.0000000000000044 1.0
Bq 0.400000000000003 2.2000000000000046 1.0
Bq 0.400000000000003 2.400000000000005 1.0
Bq 0.400000000000003 2.600000000000005 1.0
Bq 0.400000000000003 2.800000000000005 1.0
Bq 0.400000000000003 3.0000000000000053 1.0
Bq 0.6000000000000032 -3.0 1.0
Bq 0.6000000000000032 -2.8 1.0
Bq 0.6000000000000032 -2.5999999999999996 1.0
Bq 0.6000000000000032 -2.3999999999999995 1.0
Bq 0.6000000000000032 -2.1999999999999993 1.0
Bq 0.6000000000000032 -1.9999999999999991 1.0
Bq 0.6000000000000032 -1.799999999999999 1.0
Bq 0.6000000000000032 -1.5999999999999988 1.0
Bq 0.6000000000000032 -1.3999999999999986 1.0
Bq 0.6000000000000032 -1.1999999999999984 1.0
Bq 0.6000000000000032 -0.9999999999999982 1.0
Bq 0.6000000000000032 -0.799999999999998 1.0
Bq 0.6000000000000032 -0.5999999999999979 1.0
Bq 0.6000000000000032 -0.3999999999999977 1.0
Bq 0.6000000000000032 -0.1999999999999975 1.0
Bq 0.6000000000000032 2.6645352591003757e-15 1.0
Bq 0.6000000000000032 0.20000000000000284 1.0
Bq 0.6000000000000032 0.400000000000003 1.0
Bq 0.6000000000000032 0.6000000000000032 1.0
Bq 0.6000000000000032 0.8000000000000034 1.0
Bq 0.6000000000000032 1.0000000000000036 1.0
Bq 0.6000000000000032 1.2000000000000037 1.0
Bq 0.6000000000000032 1.400000000000004 1.0
Bq 0.6000000000000032 1.600000000000004 1.0
Bq 0.6000000000000032 1.8000000000000043 1.0
Bq 0.6000000000000032 2.0000000000000044 1.0
Bq 0.6000000000000032 2.2000000000000046 1.0
Bq 0.6000000000000032 2.400000000000005 1.0
Bq 0.6000000000000032 2.600000000000005 1.0
Bq 0.6000000000000032 2.800000000000005 1.0
Bq 0.6000000000000032 3.0000000000000053 1.0
Bq 0.8000000000000034 -3.0 1.0
Bq 0.8000000000000034 -2.8 1.0
Bq 0.8000000000000034 -2.5999999999999996 1.0
Bq 0.8000000000000034 -2.3999999999999995 1.0
Bq 0.8000000000000034 -2.1999999999999993 1.0
Bq 0.8000000000000034 -1.9999999999999991 1.0
Bq 0.8000000000000034 -1.799999999999999 1.0
Bq 0.8000000000000034 -1.5999999999999988 1.0
Bq 0.8000000000000034 -1.3999999999999986 1.0
Bq 0.8000000000000034 -1.1999999999999984 1.0
Bq 0.8000000000000034 -0.9999999999999982 1.0
Bq 0.8000000000000034 -0.799999999999998 1.0
Bq 0.8000000000000034 -0.5999999999999979 1.0
Bq 0.8000000000000034 -0.3999999999999977 1.0
Bq 0.8000000000000034 -0.1999999999999975 1.0
Bq 0.8000000000000034 2.6645352591003757e-15 1.0
Bq 0.8000000000000034 0.20000000000000284 1.0
Bq 0.8000000000000034 0.400000000000003 1.0
Bq 0.8000000000000034 0.6000000000000032 1.0
Bq 0.8000000000000034 0.8000000000000034 1.0
Bq 0.8000000000000034 1.0000000000000036 1.0
Bq 0.8000000000000034 1.2000000000000037 1.0
Bq 0.8000000000000034 1.400000000000004 1.0
Bq 0.8000000000000034 1.600000000000004 1.0
Bq 0.8000000000000034 1.8000000000000043 1.0
Bq 0.8000000000000034 2.0000000000000044 1.0
Bq 0.8000000000000034 2.2000000000000046 1.0
Bq 0.8000000000000034 2.400000000000005 1.0
Bq 0.8000000000000034 2.600000000000005 1.0
Bq 0.8000000000000034 2.800000000000005 1.0
Bq 0.8000000000000034 3.0000000000000053 1.0
Bq 1.0000000000000036 -3.0 1.0
Bq 1.0000000000000036 -2.8 1.0
Bq 1.0000000000000036 -2.5999999999999996 1.0
Bq 1.0000000000000036 -2.3999999999999995 1.0
Bq 1.0000000000000036 -2.1999999999999993 1.0
Bq 1.0000000000000036 -1.9999999999999991 1.0
Bq 1.0000000000000036 -1.799999999999999 1.0
Bq 1.0000000000000036 -1.5999999999999988 1.0
Bq 1.0000000000000036 -1.3999999999999986 1.0
Bq 1.0000000000000036 -1.1999999999999984 1.0
Bq 1.0000000000000036 -0.9999999999999982 1.0
Bq 1.0000000000000036 -0.799999999999998 1.0
Bq 1.0000000000000036 -0.5999999999999979 1.0
Bq 1.0000000000000036 -0.3999999999999977 1.0
Bq 1.0000000000000036 -0.1999999999999975 1.0
Bq 1.0000000000000036 2.6645352591003757e-15 1.0
Bq 1.0000000000000036 0.20000000000000284 1.0
Bq 1.0000000000000036 0.400000000000003 1.0
Bq 1.0000000000000036 0.6000000000000032 1.0
Bq 1.0000000000000036 0.8000000000000034 1.0
Bq 1.0000000000000036 1.0000000000000036 1.0
Bq 1.0000000000000036 1.2000000000000037 1.0
Bq 1.0000000000000036 1.400000000000004 1.0
Bq 1.0000000000000036 1.600000000000004 1.0
Bq 1.0000000000000036 1.8000000000000043 1.0
Bq 1.0000000000000036 2.0000000000000044 1.0
Bq 1.0000000000000036 2.2000000000000046 1.0
Bq 1.0000000000000036 2.400000000000005 1.0
Bq 1.0000000000000036 2.600000000000005 1.0
Bq 1.0000000000000036 2.800000000000005 1.0
Bq 1.0000000000000036 3.0000000000000053 1.0
Bq 1.2000000000000037 -3.0 1.0
Bq 1.2000000000000037 -2.8 1.0
Bq 1.2000000000000037 -2.5999999999999996 1.0
Bq 1.2000000000000037 -2.3999999999999995 1.0
Bq 1.2000000000000037 -2.1999999999999993 1.0
Bq 1.2000000000000037 -1.9999999999999991 1.0
Bq 1.2000000000000037 -1.799999999999999 1.0
Bq 1.2000000000000037 -1.5999999999999988 1.0
Bq 1.2000000000000037 -1.3999999999999986 1.0
Bq 1.2000000000000037 -1.1999999999999984 1.0
Bq 1.2000000000000037 -0.9999999999999982 1.0
Bq 1.2000000000000037 -0.799999999999998 1.0
Bq 1.2000000000000037 -0.5999999999999979 1.0
Bq 1.2000000000000037 -0.3999999999999977 1.0
Bq 1.2000000000000037 -0.1999999999999975 1.0
Bq 1.2000000000000037 2.6645352591003757e-15 1.0
Bq 1.2000000000000037 0.20000000000000284 1.0
Bq 1.2000000000000037 0.400000000000003 1.0
Bq 1.2000000000000037 0.6000000000000032 1.0
Bq 1.2000000000000037 0.8000000000000034 1.0
Bq 1.2000000000000037 1.0000000000000036 1.0
Bq 1.2000000000000037 1.2000000000000037 1.0
Bq 1.2000000000000037 1.400000000000004 1.0